; benchmark generated from python API
(set-info :status unknown)
(declare-fun L_2 () Real)
(declare-fun S_2 () Real)
(declare-fun A_2 () Real)
(declare-fun L_1 () Real)
(declare-fun S_1 () Real)
(declare-fun A_1 () Real)
(declare-fun L_3 () Real)
(declare-fun S_3 () Real)
(declare-fun A_3 () Real)
(declare-fun S_4 () Real)
(declare-fun L_4 () Real)
(declare-fun A_4 () Real)
(declare-fun Q_4 () Real)
(declare-fun L_0 () Real)
(declare-fun S_0 () Real)
(declare-fun A_0 () Real)
(assert
 (let (($x34 (>= L_0 0.0)))
 (let (($x34790 (<= (+ (* (/ 1.0 2.0) A_1) (* (- (/ 1.0 2.0)) S_4) (* (- (/ 1.0 2.0)) L_1)) (- 5.0))))
 (let (($x30843 (<= (+ A_2 (* (- 1.0) S_4) (* (- 1.0) L_2)) (- 5.0))))
 (let (($x853 (<= (+ A_3 (* (- 1.0) S_4) (* (- 1.0) L_3)) 0.0)))
 (let (($x63797 (or $x853 $x30843 $x34790 (<= (+ (* (- (/ 1.0 3.0)) S_4) (* (/ 1.0 3.0) S_0)) (- 5.0)))))
 (let ((?x429 (* (- 1.0) L_3)))
 (let ((?x697 (+ L_2 ?x429)))
 (let (($x54044 (<= 0.0 ?x697)))
 (let ((?x3451 (* 2.0 L_3)))
 (let ((?x1135 (* (- 2.0) L_1)))
 (let ((?x938 (* (- 1.0) S_0)))
 (let ((?x1086 (* 2.0 A_1)))
 (let ((?x3433 (* (- 2.0) A_3)))
 (let (($x36875 (<= (+ ?x3433 ?x1086 S_3 ?x938 ?x1135 ?x3451) 0.0)))
 (let ((?x455 (* (- 1.0) L_1)))
 (let ((?x1074 (* (- 2.0) L_2)))
 (let ((?x370 (* (- 1.0) S_4)))
 (let ((?x1126 (* 2.0 A_2)))
 (let ((?x355 (* (- 1.0) A_3)))
 (let (($x25928 (<= (+ ?x355 ?x1126 A_1 ?x370 ?x1074 ?x938 ?x455 L_3) 0.0)))
 (let ((?x3443 (* 3.0 L_3)))
 (let ((?x1076 (* (- 3.0) L_2)))
 (let ((?x403 (* (- 1.0) S_1)))
 (let ((?x1060 (* 3.0 A_2)))
 (let ((?x3409 (* (- 3.0) A_3)))
 (let (($x60032 (<= (+ ?x3433 ?x1126 A_1 ?x1074 ?x938 ?x455 ?x3451) (- 5.0))))
 (let ((?x3459 (* 5.0 L_3)))
 (let ((?x1171 (* (- 5.0) L_1)))
 (let ((?x3458 (* (- 2.0) S_0)))
 (let ((?x1170 (* 5.0 A_1)))
 (let ((?x3457 (* (- 5.0) A_3)))
 (let ((?x3429 (* (- 2.0) L_4)))
 (let ((?x3406 (* 2.0 A_4)))
 (let ((?x3415 (* (- 2.0) Q_4)))
 (let (($x3461 (<= (+ ?x3415 ?x3406 ?x3429 ?x3457 ?x1170 ?x3458 ?x1171 ?x3459) 0.0)))
 (let (($x38525 (<= (+ ?x355 A_1 S_1 ?x938 ?x455 L_3) 0.0)))
 (let ((?x442 (* (- 1.0) L_2)))
 (let ((?x870 (* (- 1.0) A_0)))
 (let (($x14292 (<= (+ ?x355 A_2 A_1 ?x870 ?x455 L_0 ?x442 L_3) 0.0)))
 (let (($x63172 (<= (+ ?x355 A_2 ?x442 (* (/ 1.0 2.0) S_1) (* (- (/ 1.0 2.0)) S_0) L_3) (- 5.0))))
 (let (($x30332 (<= (+ ?x3433 ?x1126 ?x1086 ?x1074 (* (- 1.0) S_2) ?x938 ?x1135 ?x3451) 0.0)))
 (let (($x130213 (or $x54044 (<= (+ ?x355 (* (/ 4.0 3.0) S_2) (* (- (/ 1.0 3.0)) S_0) L_3) (- 5.0)))))
 (let (($x53117 (or $x853 (<= (+ ?x870 (* (- 2.0) S_4) (* 3.0 S_2) L_0) 0.0))))
 (let (($x61916 (<= (+ ?x355 (* (- 2.0) A_0) (* 3.0 S_1) (* 2.0 L_0) L_3) (- 5.0))))
 (let (($x134872 (or $x54044 $x61916 (<= (+ ?x355 A_2 ?x870 ?x442 S_1 L_0 L_3) (- 5.0)))))
 (let ((?x1062 (* (- 3.0) L_1)))
 (let ((?x5224 (* 2.0 L_0)))
 (let ((?x3437 (* 2.0 S_3)))
 (let ((?x7710 (* (- 2.0) A_0)))
 (let ((?x1102 (* 3.0 A_1)))
 (let (($x61450 (<= (+ ?x355 (* (- (/ 1.0 2.0)) A_0) (* (/ 3.0 2.0) S_2) (* (/ 1.0 2.0) L_0) L_3) (- 5.0))))
 (let (($x14748 (<= (+ ?x355 A_2 A_1 ?x455 ?x403 ?x442 L_3) 0.0)))
 (let (($x52653 (or $x853 (<= (+ ?x870 (* (- (/ 1.0 2.0)) S_4) (* (/ 3.0 2.0) S_1) L_0) 0.0) (<= (+ A_2 ?x870 ?x370 ?x442 S_1 L_0) 0.0))))
 (let (($x52686 (or $x853 (<= (+ ?x370 (* 2.0 S_1) ?x938) 0.0) (<= (+ A_2 ?x370 ?x442 (* (/ 1.0 2.0) S_1) (* (- (/ 1.0 2.0)) S_0)) 0.0))))
 (let (($x64559 (or $x14292 (<= (+ ?x355 A_1 ?x7710 (* 2.0 S_1) ?x5224 ?x455 L_3) 0.0) $x54044)))
 (let (($x133399 (or $x14748 (<= (+ ?x3409 ?x1102 ?x3437 (* (- 2.0) S_1) ?x1062 ?x3443) 0.0) $x54044)))
 (let (($x134978 (or $x54044 (<= (+ ?x355 (* (/ 3.0 2.0) S_2) (* (- (/ 1.0 2.0)) S_1) L_3) (- 5.0)))))
 (let (($x131938 (or (<= (+ ?x3433 ?x1086 ?x7710 (* 2.0 S_2) ?x5224 ?x1135 ?x3451) 0.0) $x54044)))
 (let (($x132261 (or $x54044 (<= (+ ?x355 (* (- 1.0) A_1) L_1 (* 2.0 S_2) L_3) (- 5.0)))))
 (let (($x878 (= (+ L_2 ?x455) 0.0)))
 (let (($x131993 (or $x878 (<= (+ (* (- 1.0) A_2) A_1 ?x455 L_2) (- 10.0)) (<= (+ (* (- 1.0) A_2) S_0 L_2) (- 15.0)))))
 (let (($x2956 (<= (+ (* (- 3.0) A_2) ?x1102 ?x870 S_3 L_0 ?x1062 (* 3.0 L_2)) 0.0)))
 (let (($x62579 (<= (+ (* (- 1.0) A_2) (* (/ 3.0 2.0) S_1) (* (- (/ 1.0 2.0)) S_0) L_2) (- 5.0))))
 (let (($x61247 (<= (+ (* (- 1.0) A_2) (* (/ 2.0 3.0) S_3) (* (/ 1.0 3.0) S_0) L_2) (- 5.0))))
 (let (($x67337 (or $x878 $x61247 (<= (+ (* (- 2.0) A_2) A_1 S_3 ?x455 (* 2.0 L_2)) (- 10.0)))))
 (let (($x62384 (<= (+ (* (- 1.0) A_2) (* (/ 1.0 2.0) S_3) (* (/ 1.0 2.0) S_1) L_2) (- 5.0))))
 (let (($x37670 (<= (+ A_1 (* (- 1.0) S_3) ?x455) (- 5.0))))
 (let (($x859 (<= (+ A_2 (* (- 1.0) S_3) ?x442) 0.0)))
 (let (($x34199 (<= (+ (* (- (/ 1.0 2.0)) A_1) (* (- (/ 1.0 2.0)) S_4) (* (/ 1.0 2.0) L_1) S_2) 0.0)))
 (let (($x62164 (<= (+ (* (- 1.0) A_2) (* (- 1.0) A_1) S_3 L_2 S_0 L_1) (- 5.0))))
 (let (($x880 (= (+ L_1 (* (- 1.0) L_0)) 0.0)))
 (let ((?x17174 (* (- (/ 1.0 2.0)) L_3)))
 (let ((?x21990 (* (/ 1.0 2.0) L_1)))
 (let ((?x17193 (* (- (/ 1.0 2.0)) A_1)))
 (let ((?x17172 (* (/ 1.0 2.0) A_3)))
 (let (($x41936 (<= (+ ?x17172 ?x17193 ?x370 S_2 ?x21990 ?x17174) 0.0)))
 (let (($x60430 (<= (+ (* (- 1.0) A_1) (* (/ 1.0 3.0) S_3) (* (/ 2.0 3.0) S_0) L_1) (- 5.0))))
 (let (($x3252 (<= (+ ?x1126 (* (- 2.0) A_1) ?x370 S_1 (* 2.0 L_1) ?x1074) 0.0)))
 (let (($x133765 (or $x853 $x880 (<= (+ (* (- 1.0) A_1) ?x370 (* 2.0 S_2) L_1) (- 5.0)))))
 (let ((?x17181 (* (/ 3.0 2.0) L_3)))
 (let ((?x21976 (* (- (/ 3.0 2.0)) L_1)))
 (let ((?x17164 (* (/ 3.0 2.0) A_1)))
 (let ((?x17191 (* (- (/ 3.0 2.0)) A_3)))
 (let (($x41899 (<= (+ ?x17191 ?x17164 S_2 ?x938 ?x21976 ?x17181) 0.0)))
 (let ((?x21999 (* (/ 3.0 2.0) L_1)))
 (let ((?x17201 (* (- (/ 3.0 2.0)) A_1)))
 (let (($x39814 (<= (+ (* (/ 3.0 2.0) A_3) ?x17201 ?x370 S_0 ?x21999 (* (- (/ 3.0 2.0)) L_3)) 0.0)))
 (let (($x132435 (or $x878 (<= (+ (* (- 1.0) A_2) ?x870 (* 2.0 S_1) L_0 L_2) (- 5.0)))))
 (let (($x134052 (or $x878 (<= (+ (* (- 1.0) A_2) A_1 ?x870 S_1 L_0 ?x455 L_2) 0.0))))
 (let (($x43505 (or $x859 (<= (+ ?x870 (* (- 1.0) S_3) (* 2.0 S_1) L_0) 0.0))))
 (let (($x44663 (or $x859 (<= (+ (* (- 1.0) S_3) (* (/ 3.0 2.0) S_1) (* (- (/ 1.0 2.0)) S_0)) 0.0))))
 (let ((?x3448 (* 2.0 S_1)))
 (let ((?x3574 (* (- 2.0) S_3)))
 (let ((?x363 (* (- 1.0) A_1)))
 (let (($x2089 (<= (+ (* (- 2.0) A_2) ?x1086 S_2 ?x403 ?x1135 (* 2.0 L_2)) 0.0)))
 (let ((?x2829 (* (- 2.0) L_3)))
 (let ((?x1082 (* 2.0 L_2)))
 (let ((?x381 (* (- 1.0) S_3)))
 (let ((?x1139 (* (- 2.0) A_2)))
 (let ((?x3454 (* 2.0 A_3)))
 (let (($x133540 (or $x878 (<= (+ ?x429 A_3 (* (- 1.0) A_2) A_1 ?x381 ?x455 L_2) 0.0) (<= (+ ?x3454 ?x1139 ?x381 S_0 ?x1082 ?x2829) 0.0))))
 (let (($x131819 (or $x878 (<= (+ A_3 (* (- 1.0) A_2) ?x381 S_1 L_2 ?x429) 0.0))))
 (let ((?x3427 (* (- 3.0) L_3)))
 (let ((?x1043 (* 3.0 L_2)))
 (let ((?x1108 (* (- 3.0) A_2)))
 (let ((?x3436 (* 3.0 A_3)))
 (let (($x35777 (<= (+ ?x3436 ?x1108 ?x370 S_0 ?x1043 ?x3427) 0.0)))
 (let (($x12893 (<= (+ ?x3454 ?x1139 A_1 ?x370 ?x455 ?x1082 ?x2829) 0.0)))
 (let (($x131742 (or $x878 (<= (+ A_3 (* (- 1.0) A_2) ?x370 S_2 L_2 ?x429) 0.0))))
 (let (($x134056 (or $x880 (<= (+ ?x17172 ?x17193 (* (- 1.0) S_2) S_0 ?x21990 ?x17174) 0.0))))
 (let (($x130945 (or $x880 $x54044 (<= (+ (* (- (/ 1.0 2.0)) A_3) ?x17193 S_2 ?x21990 (* (/ 1.0 2.0) L_3)) (- 5.0)))))
 (let (($x132518 (or $x880 (<= (+ ?x363 (* (/ 1.0 2.0) S_2) (* (/ 1.0 2.0) S_0) L_1) (- 5.0)))))
 (let (($x41923 (<= (+ ?x3433 ?x1086 (* 2.0 S_2) (* (- 2.0) S_1) ?x1135 ?x3451) 0.0)))
 (let ((?x1120 (* 2.0 L_1)))
 (let ((?x6187 (* 2.0 S_0)))
 (let ((?x1100 (* (- 2.0) A_1)))
 (let (($x67353 (or (<= (+ ?x3433 ?x1126 S_3 (* (- 1.0) S_2) ?x1074 ?x3451) 0.0) $x54044)))
 (let (($x133390 (or $x878 (<= (+ ?x1139 ?x1086 S_3 (* (- 1.0) S_2) ?x1135 ?x1082) 0.0))))
 (let (($x28883 (<= (+ A_3 (* (- 1.0) A_2) ?x429 (* (- 1.0) S_2) L_2 S_0) 0.0)))
 (let (($x865 (<= (+ A_1 (* (- 1.0) S_2) ?x455) 0.0)))
 (let (($x66912 (or $x878 (<= (+ ?x429 A_3 ?x1139 A_1 ?x455 ?x1082) (- 5.0)) (<= (+ ?x3454 ?x1108 S_0 ?x1043 ?x2829) (- 5.0)))))
 (let (($x38138 (or $x865 (<= (+ (* (/ 1.0 3.0) S_3) (* (- 1.0) S_2) (* (/ 2.0 3.0) S_0)) 0.0))))
 (let ((?x1160 (* 4.0 L_2)))
 (let ((?x1159 (* (- 4.0) L_1)))
 (let ((?x1158 (* 4.0 A_1)))
 (let ((?x468 (* (- 4.0) A_2)))
 (let (($x134878 (or $x880 (<= (+ A_2 ?x363 (* (- 1.0) S_2) S_0 L_1 ?x442) 0.0))))
 (let ((?x4638 (* 4.0 L_3)))
 (let ((?x1166 (* (- 4.0) L_2)))
 (let ((?x1163 (* 4.0 A_2)))
 (let ((?x4861 (* (- 4.0) A_3)))
 (let (($x19289 (<= (+ (* (- 1.0) A_2) L_2 A_3 ?x363 S_0 L_1 ?x429) 0.0)))
 (let (($x54144 (not $x54044)))
 (let (($x34447 (<= (+ A_3 (* (- 1.0) A_2) (* (- (/ 1.0 3.0)) S_4) (* (/ 1.0 3.0) S_0)) 0.0)))
 (let (($x19000 (not (<= (+ (* (- 1.0) A_2) L_2 A_3 ?x363 S_0 L_0 ?x429) 0.0))))
 (let (($x134026 (or $x878 (<= (+ A_2 ?x442 ?x355 A_1 ?x938 (* (- 1.0) L_0) L_3) 0.0) $x35777)))
 (let (($x30052 (<= (+ ?x1060 (* (- 3.0) A_1) ?x370 S_0 (* 3.0 L_1) ?x1076) 0.0)))
 (let ((?x4137 (* (/ 3.0 4.0) S_0)))
 (let ((?x4158 (* (- (/ 1.0 4.0)) L_4)))
 (let ((?x4157 (* (/ 1.0 4.0) A_4)))
 (let ((?x4155 (* (- (/ 1.0 4.0)) Q_4)))
 (let ((?x4189 (+ ?x4155 ?x4157 ?x4158 ?x363 ?x4137 L_1)))
 (let ((?x3545 (* 3.0 S_3)))
 (let ((?x3423 (* 2.0 L_4)))
 (let ((?x3442 (* (- 2.0) A_4)))
 (let ((?x3446 (* 2.0 Q_4)))
 (let (($x978 (<= Q_4 0.0)))
 (let (($x3758 (<= (+ (* 3.0 Q_4) ?x3442 ?x3423 ?x363 ?x3545 L_1) 0.0)))
 (let (($x131275 (or $x978 (<= (+ Q_4 (* (- 1.0) A_4) L_4 (* 2.0 S_2) ?x403) 0.0) (<= (+ ?x3446 ?x3442 ?x2829 ?x3454 ?x3423 S_2 ?x403) 0.0))))
 (let (($x6069 (<= (+ ?x1120 Q_4 (* (- 1.0) A_4) ?x1100 L_4 (* 3.0 S_2)) 0.0)))
 (let (($x3424 (<= (+ Q_4 (* (- 1.0) A_4) L_4 A_3 ?x363 S_2 L_1 ?x429) 0.0)))
 (let ((?x7639 (* (/ 1.0 3.0) S_1)))
 (let ((?x8974 (* (- (/ 2.0 3.0)) L_4)))
 (let ((?x7628 (* (/ 2.0 3.0) A_4)))
 (let ((?x8909 (* (- (/ 2.0 3.0)) Q_4)))
 (let ((?x9005 (+ ?x8909 ?x7628 ?x8974 ?x355 ?x7639 L_3)))
 (let (($x55790 (<= 0.0 ?x9005)))
 (let (($x8633 (<= (+ Q_4 (* (- 1.0) A_4) A_2 ?x442 L_4 S_1 ?x938) 0.0)))
 (let (($x133826 (or $x978 $x8633 (<= (+ ?x3446 ?x3442 ?x2829 ?x3454 ?x3423 S_1 ?x938) 0.0) (not $x55790))))
 (let (($x58709 (<= (+ Q_4 (* (- 1.0) A_4) ?x429 A_3 L_4 ?x363 S_2 L_1) (- 5.0))))
 (let ((?x11261 (* (/ 3.0 2.0) S_2)))
 (let ((?x8883 (* (/ 1.0 2.0) L_4)))
 (let ((?x8268 (* (- (/ 1.0 2.0)) A_4)))
 (let ((?x8900 (* (/ 1.0 2.0) Q_4)))
 (let (($x56960 (<= (+ ?x8900 ?x8268 ?x8883 ?x363 ?x11261 L_1) (- 5.0))))
 (let ((?x11244 (* (/ 1.0 2.0) S_2)))
 (let ((?x9884 (* (- (/ 1.0 2.0)) L_4)))
 (let ((?x9878 (* (/ 1.0 2.0) A_4)))
 (let ((?x8249 (* (- (/ 1.0 2.0)) Q_4)))
 (let ((?x11259 (+ ?x8249 ?x9878 ?x9884 ?x355 ?x11244 L_3)))
 (let (($x55437 (<= 0.0 (+ (* (- 3.0) Q_4) A_4 (* (- 1.0) L_4) ?x1108 ?x1086 ?x1135 ?x1043))))
 (let ((?x340 (* (- 1.0) L_4)))
 (let ((?x457 (+ L_3 ?x340)))
 (let (($x54365 (<= 0.0 ?x457)))
 (let (($x20657 (<= (+ Q_4 ?x3442 ?x2829 ?x3454 ?x3423 A_1 ?x938 ?x455) 0.0)))
 (let (($x133824 (or $x20657 (<= (+ (* (- 1.0) A_4) A_2 ?x442 L_4 A_1 ?x938 ?x455) 0.0) $x54365 (not $x55437))))
 (let (($x57696 (<= (+ ?x3415 ?x3406 ?x3451 ?x3433 ?x3429 (* (- 1.0) A_2) S_0 L_2) (- 5.0))))
 (let ((?x359 (* (- 1.0) A_2)))
 (let ((?x347 (* (- 1.0) Q_4)))
 (let (($x64618 (or $x878 (<= (+ ?x347 A_4 L_3 ?x355 ?x340 ?x359 A_1 ?x455 L_2) (- 5.0)) $x57696)))
 (let (($x61194 (or $x878 (<= (+ ?x1135 ?x347 A_4 ?x1086 ?x340 ?x1108 ?x1043) (- 15.0)) (<= (+ ?x8249 ?x9878 ?x9884 ?x359 (* (/ 1.0 2.0) S_0) L_2) (- 5.0)))))
 (let (($x20707 (<= (+ ?x3446 (* (- 1.0) A_4) ?x429 A_3 L_4 ?x363 S_2 L_1) 0.0)))
 (let ((?x3791 (* 3.0 S_2)))
 (let ((?x351 (* (- 1.0) A_4)))
 (let ((?x3707 (* 3.0 Q_4)))
 (let (($x3783 (<= (+ ?x3707 ?x351 L_4 ?x1100 ?x3791 ?x1120) 0.0)))
 (let (($x22926 (<= (+ ?x347 ?x351 A_2 ?x442 L_4 ?x1086 (* (- 2.0) S_1) ?x1135) 0.0)))
 (let (($x3784 (<= (+ (* (- 3.0) Q_4) ?x351 L_4 ?x1158 (* (- 3.0) S_1) ?x1159) 0.0)))
 (let (($x133565 (or (<= (+ ?x351 ?x429 A_3 L_4 A_1 ?x403 ?x455) 0.0) $x3784 $x22926 $x54365)))
 (let (($x55797 (<= (+ Q_4 ?x351 ?x429 A_3 L_4) (- 5.0))))
 (let (($x135325 (or (<= (+ ?x355 A_1 S_3 (* (- 1.0) S_2) ?x455 L_3) 0.0) $x54044)))
 (let (($x131525 (or $x880 (<= (+ Q_4 A_4 ?x359 L_2 ?x340 ?x1100 ?x6187 ?x1120) 0.0))))
 (let ((?x25404 (+ ?x8249 ?x9878 (* (- (/ 1.0 2.0)) A_2) (* (/ 1.0 2.0) L_2) ?x9884 ?x363 S_0 L_1)))
 (let ((?x1165 (* 4.0 L_1)))
 (let ((?x1164 (* (- 4.0) A_1)))
 (let (($x131623 (or $x880 (<= (+ ?x3707 A_4 ?x340 ?x1164 (* 3.0 S_0) ?x1165) 0.0))))
 (let (($x7650 (<= (+ ?x347 A_4 A_2 ?x442 ?x340 (* (- 2.0) S_4)) 0.0)))
 (let (($x3805 (<= (+ (* (- 3.0) Q_4) ?x3406 ?x3429 A_1 (* (- 3.0) S_4) ?x455) 0.0)))
 (let (($x3796 (<= (+ (* (- 3.0) Q_4) A_4 ?x340 ?x1086 (* (- 3.0) S_3) ?x1135) 0.0)))
 (let (($x3426 (<= (+ ?x347 A_4 ?x340 ?x355 A_1 ?x381 ?x455 L_3) 0.0)))
 (let ((?x3793 (* (- 3.0) Q_4)))
 (let (($x3826 (<= (+ ?x3793 ?x351 L_4 ?x1158 (* (- 3.0) A_0) (* 3.0 L_0) ?x1159) 0.0)))
 (let (($x131064 (or (<= (+ ?x351 ?x429 A_3 L_4 A_1 ?x870 L_0 ?x455) 0.0) $x3826 (<= (+ ?x347 ?x351 A_2 ?x442 L_4 ?x1086 ?x7710 ?x5224 ?x1135) 0.0) $x54365)))
 (let ((?x4560 (* (- 4.0) L_3)))
 (let ((?x4633 (* 4.0 A_3)))
 (let ((?x4662 (* 3.0 L_4)))
 (let ((?x4680 (* (- 3.0) A_4)))
 (let (($x133647 (or $x978 (<= (+ Q_4 ?x351 L_4 ?x870 (* 2.0 S_2) L_0) 0.0) (<= (+ ?x3446 ?x3442 ?x2829 ?x3454 ?x3423 ?x870 S_2 L_0) 0.0))))
 (let (($x134139 (or $x978 (<= (+ ?x3707 ?x4680 ?x4662 ?x870 (* 4.0 S_3) L_0) 0.0))))
 (let ((?x11249 (+ (* (/ 3.0 2.0) Q_4) (* (- (/ 3.0 2.0)) A_4) (* (/ 3.0 2.0) L_4) (* (/ 5.0 2.0) S_2) ?x938)))
 (let (($x65612 (or $x978 (<= ?x11249 0.0) (<= (+ ?x3707 ?x4680 ?x3427 ?x3436 ?x4662 S_2 ?x938) 0.0))))
 (let (($x55570 (<= (+ ?x347 A_4 A_2 ?x442 ?x340 ?x3433 ?x3451) (- 10.0))))
 (let (($x51539 (<= 0.0 (+ ?x347 A_4 ?x340 ?x355 ?x359 A_1 ?x455 L_2 L_3))))
 (let (($x54303 (not $x51539)))
 (let (($x135479 (or (<= (+ ?x3793 ?x3442 ?x3423 ?x1170 (* (- 3.0) S_0) ?x1171) 0.0) $x20657 $x54365 $x55437)))
 (let (($x131398 (or $x859 (<= (+ ?x3415 A_4 L_3 ?x355 ?x340 A_1 ?x381 ?x455) 0.0) $x54365)))
 (let (($x54828 (<= 0.0 (+ ?x3415 ?x351 L_4 ?x1060 ?x1100 ?x1120 ?x1076))))
 (let (($x135570 (or (= (+ ?x1120 ?x3415 ?x351 ?x1100 L_4 ?x1060 ?x1076) 0.0) $x54365 (<= 0.0 (+ A_4 ?x355 ?x359 A_1 ?x340 ?x455 L_2 L_3)) (not $x54828))))
 (let (($x4681 (<= (+ ?x3415 ?x4680 ?x4662 (* 5.0 A_2) ?x3458 (* (- 5.0) L_2)) 0.0)))
 (let (($x66131 (or $x4681 (<= (+ ?x3446 ?x4680 ?x3427 ?x3436 ?x4662 A_2 ?x938 ?x442) 0.0) $x54365)))
 (let (($x135167 (or $x878 (<= (+ ?x347 A_4 L_3 ?x355 ?x340 ?x359 S_1 L_2) (- 5.0)))))
 (let (($x19902 (<= (+ ?x347 A_4 A_2 ?x442 ?x340 ?x3433 ?x1086 (* (- 2.0) S_2) ?x1135 ?x3451) 0.0)))
 (let (($x19997 (<= (+ Q_4 ?x351 ?x359 L_2 L_4 ?x3454 ?x1100 ?x3448 ?x1120 ?x2829) 0.0)))
 (let (($x3410 (<= (+ ?x3446 ?x3442 ?x3423 ?x3436 (* (- 3.0) A_1) ?x3448 (* 3.0 L_1) ?x3427) 0.0)))
 (let ((?x8985 (* (/ 1.0 3.0) L_4)))
 (let ((?x8984 (* (- (/ 1.0 3.0)) A_4)))
 (let ((?x8983 (* (/ 1.0 3.0) Q_4)))
 (let (($x54496 (or $x978 (<= (+ Q_4 ?x351 A_2 ?x442 L_4 ?x7710 ?x3448 ?x5224) 0.0) (<= (+ ?x8983 ?x8984 ?x8985 ?x870 (* (/ 4.0 3.0) S_1) L_0) 0.0) (<= (+ Q_4 ?x351 ?x429 A_3 L_4 ?x870 S_1 L_0) 0.0))))
 (let (($x132049 (or $x878 (<= (+ ?x347 ?x3406 ?x3451 ?x3433 ?x3429 ?x359 S_0 L_2) 0.0) (<= 0.0 (+ ?x351 ?x429 A_3 L_4 A_2 ?x363 L_1 ?x442)))))
 (let (($x132278 (or (<= (+ ?x347 ?x351 L_4 ?x1126 ?x403 ?x1074) 0.0) (<= (+ Q_4 ?x3442 ?x2829 ?x3454 ?x3423 A_2 ?x403 ?x442) 0.0) $x54365)))
 (let (($x133067 (or $x878 $x978 (<= (+ Q_4 ?x351 L_4 ?x3454 ?x1139 S_2 ?x1082 ?x2829) 0.0))))
 (let (($x54755 (<= 0.0 (+ ?x347 A_4 ?x340 ?x3409 ?x1060 ?x363 L_1 ?x1076 ?x3443))))
 (let (($x130867 (or $x878 $x978 (<= (+ Q_4 ?x351 L_4 ?x4633 ?x468 S_0 ?x1160 ?x4560) 0.0) $x54755)))
 (let (($x132911 (or (<= (+ ?x351 ?x429 A_3 L_4 A_2 (* (- 1.0) S_2) ?x442) 0.0) (<= (+ ?x3415 ?x351 L_4 ?x1060 (* (- 2.0) S_2) ?x1076) 0.0) $x54365)))
 (let (($x130765 (or (<= (+ ?x347 ?x351 L_4 ?x1126 ?x870 L_0 ?x1074) 0.0) (<= (+ Q_4 ?x3442 ?x2829 ?x3454 ?x3423 A_2 ?x870 L_0 ?x442) 0.0) $x54365)))
 (let (($x130489 (or $x880 (<= (+ ?x347 A_4 L_3 ?x355 ?x340 ?x363 S_0 L_1) (- 5.0)))))
 (let (($x130612 (or (<= (+ ?x347 A_4 ?x340 ?x3433 ?x1086 ?x403 ?x1135 ?x3451) 0.0) $x51539 $x54044)))
 (let (($x130940 (or $x853 (<= (+ ?x455 ?x3415 ?x3406 A_1 ?x3429 (* (- 3.0) S_4)) 0.0) $x7650 (not (<= 0.0 ?x4189)))))
 (let ((?x8980 (* (/ 2.0 3.0) S_1)))
 (let ((?x8965 (* (- (/ 1.0 3.0)) L_4)))
 (let ((?x8966 (* (/ 1.0 3.0) A_4)))
 (let ((?x8969 (* (- (/ 1.0 3.0)) Q_4)))
 (let (($x135584 (or $x978 (<= (+ Q_4 ?x351 ?x1060 ?x1076 L_4 ?x3433 ?x1086 ?x3458 ?x1135 ?x3451) 0.0) $x54044 $x54303)))
 (let (($x55408 (<= (+ Q_4 ?x351 A_2 ?x442 L_4) (- 10.0))))
 (let (($x54602 (<= (+ (* (/ 3.0 4.0) Q_4) (* (- (/ 3.0 4.0)) A_4) (* (/ 3.0 4.0) L_4) ?x4137) (- 15.0))))
 (let (($x131112 (or $x978 $x54602 (<= (+ ?x455 Q_4 ?x351 A_1 L_4) (- 15.0)) $x55408 $x55797)))
 (let ((?x6073 (* (/ 2.0 3.0) L_4)))
 (let ((?x8970 (* (- (/ 2.0 3.0)) A_4)))
 (let ((?x7110 (* (/ 2.0 3.0) Q_4)))
 (let (($x130673 (or $x978 $x8633 (<= (+ ?x7110 ?x8970 ?x6073 (* (/ 5.0 3.0) S_1) ?x938) 0.0) $x55790)))
 (let (($x55898 (<= 0.0 (+ ?x347 ?x351 L_4 ?x3454 ?x359 L_2 ?x2829))))
 (let (($x133045 (or (not $x880) (<= (+ ?x3406 ?x3429 ?x3409 A_1 (* (- 1.0) L_0) ?x3443) 0.0) $x54044 $x55898)))
 (let ((?x9412 (* (- 5.0) L_3)))
 (let ((?x11466 (* 5.0 A_3)))
 (let ((?x8081 (* 4.0 L_4)))
 (let ((?x8064 (* (- 4.0) A_4)))
 (let ((?x9923 (* (/ 1.0 4.0) S_0)))
 (let ((?x4255 (* (- (/ 3.0 4.0)) L_4)))
 (let ((?x4254 (* (/ 3.0 4.0) A_4)))
 (let ((?x4256 (* (- (/ 3.0 4.0)) Q_4)))
 (let (($x130750 (or $x54044 $x55570 (<= (+ ?x455 ?x3415 ?x3406 A_1 ?x3429 ?x3409 ?x3443) (- 15.0)) (<= (+ ?x4256 ?x4254 ?x4255 ?x355 ?x9923 L_3) (- 5.0)))))
 (let (($x56125 (or $x859 (<= (+ ?x1135 ?x347 A_4 ?x1086 ?x340 (* (- 3.0) S_3)) 0.0) (<= (+ ?x8249 ?x9878 ?x9884 ?x381 (* (/ 1.0 2.0) S_0)) 0.0))))
 (let (($x55121 (<= 0.0 ?x4189)))
 (let (($x130541 (or $x880 $x978 (<= (+ Q_4 ?x351 L_4 ?x3454 ?x1100 S_0 ?x1120 ?x2829) 0.0))))
 (let (($x130106 (or $x880 $x978 (<= (+ ?x3446 ?x3442 ?x3423 A_3 ?x363 ?x3437 L_1 ?x429) 0.0))))
 (let (($x130893 (or $x880 (= (+ ?x3442 ?x3423 ?x3436 ?x363 L_1 ?x3427) 0.0) $x51539 $x54044 $x54365)))
 (let (($x132650 (or (= (+ L_1 ?x347 A_4 ?x363 ?x340 ?x3409 ?x1060 ?x1076 ?x3443) 0.0) $x54044 (not $x54755))))
 (let (($x55892 (<= 0.0 (+ ?x347 ?x3442 ?x3423 ?x3436 ?x363 L_1 ?x3427))))
 (let (($x11345 (<= (+ Q_4 (* 3.0 A_4) (* (- 3.0) L_4) ?x4861 S_0 ?x4638) 0.0)))
 (let (($x68772 (or $x878 $x978 (<= (+ Q_4 ?x351 L_4 ?x3436 ?x1108 S_1 ?x1043 ?x3427) 0.0))))
 (let (($x132762 (or $x865 (<= (+ ?x347 A_4 ?x359 L_2 ?x340 (* (- 2.0) S_2) ?x6187) 0.0))))
 (let (($x3412 (<= (+ ?x3415 ?x3406 ?x3429 ?x355 A_1 (* (- 2.0) S_4) ?x455 L_3) 0.0)))
 (let (($x135023 (or $x865 (<= (+ ?x347 A_4 L_3 ?x355 ?x340 (* (- 1.0) S_2) S_0) 0.0))))
 (let (($x135225 (or (<= (+ ?x347 A_4 ?x340 ?x3433 ?x1086 ?x870 L_0 ?x1135 ?x3451) 0.0) $x51539 $x54044)))
 (let (($x133121 (or (<= (+ ?x3415 ?x3406 ?x3429 ?x3409 ?x1102 (* (- 2.0) S_2) ?x1062 ?x3443) 0.0) $x51539 $x54044)))
 (let (($x61287 (or $x878 $x978 (<= (+ Q_4 ?x351 L_4 A_3 ?x359 S_3 L_2 ?x429) 0.0))))
 (let ((?x4652 (* (- 5.0) L_2)))
 (let ((?x4471 (* 5.0 A_2)))
 (let (($x135081 (or (<= (+ ?x347 A_4 ?x340 ?x4861 ?x1163 ?x870 L_0 ?x1166 ?x4638) 0.0) $x54044)))
 (let (($x62484 (or (= (+ ?x347 ?x351 ?x359 L_2 L_4 ?x3454 ?x2829) 0.0) $x54365 (not $x55898))))
 (let (($x60551 (or (not $x878) (<= (+ A_4 ?x340 ?x3433 A_2 ?x455 ?x3451) 0.0) $x54044)))
 (let (($x130047 (or (= (+ L_1 ?x347 ?x3442 ?x363 ?x3423 ?x3436 ?x3427) 0.0) $x54365 (not $x55892))))
 (let (($x130567 (or $x978 (<= (+ (* 4.0 Q_4) ?x8064 ?x8081 (* 5.0 S_3) ?x938) 0.0))))
 (let (($x4588 (<= (+ ?x347 A_4 ?x340 ?x3409 ?x1060 (* (- 1.0) S_2) ?x1076 ?x3443) 0.0)))
 (let (($x64123 (or $x853 (<= (+ ?x3415 A_4 ?x340 A_2 (* (- 2.0) S_4) ?x442) 0.0) $x54365)))
 (let (($x65328 (or $x54044 (not (<= 0.0 (+ ?x347 A_4 ?x340 ?x3433 A_2 ?x442 ?x3451))))))
 (let (($x135560 (or (<= (+ ?x347 A_4 ?x340 ?x355 A_2 ?x370 ?x442 L_3) 0.0) $x54044)))
 (let ((?x688 (+ L_1 ?x442)))
 (let (($x307 (<= 0.0 ?x688)))
 (let (($x133139 (or $x307 (= (+ Q_4 ?x351 ?x429 A_3 L_4 A_2 ?x363 L_1 ?x442) 0.0) $x54303)))
 (let (($x135299 (or $x307 (<= (+ ?x347 A_4 ?x340 ?x359 A_1 ?x370 ?x455 L_2) 0.0))))
 (let (($x917 (<= (+ ?x347 A_4 ?x340 ?x1108 ?x1102 (* (- 1.0) S_2) ?x1062 ?x1043) 0.0)))
 (let ((?x1058 (* 3.0 L_1)))
 (let ((?x1059 (* (- 3.0) A_1)))
 (let (($x63648 (or $x880 $x978 (<= (+ Q_4 ?x351 L_4 ?x1060 ?x1059 S_1 ?x1058 ?x1076) 0.0) $x51539)))
 (let (($x135190 (or $x880 $x978 (<= (+ Q_4 ?x351 L_4 ?x1163 ?x1164 S_0 ?x1165 ?x1166) 0.0) $x51539)))
 (let (($x133777 (or $x880 $x978 (<= (+ Q_4 ?x351 L_4 ?x1126 ?x1100 S_2 ?x1120 ?x1074) 0.0) $x51539)))
 (let ((?x2078 (+ ?x429 A_3 ?x1139 A_1 ?x455 ?x1082)))
 (let (($x50743 (<= 0.0 ?x2078)))
 (let (($x876 (= (+ L_3 ?x442) 0.0)))
 (let (($x131419 (or $x880 $x978 (<= (+ Q_4 ?x351 L_4 A_2 ?x363 S_3 L_1 ?x442) 0.0))))
 (let (($x70694 (or $x880 (= (+ ?x351 L_4 ?x1060 ?x1100 ?x1120 ?x1076) 0.0) (not (<= (+ A_4 ?x340 ?x1108 ?x1086 ?x1135 ?x1043) 0.0)) $x51539 $x54365)))
 (let ((?x1172 (* 5.0 L_2)))
 (let ((?x1169 (* (- 5.0) A_2)))
 (let (($x131306 (or $x307 (<= (+ ?x347 A_4 ?x340 ?x468 ?x1158 ?x870 L_0 ?x1159 ?x1160) 0.0))))
 (let (($x297 (or (not $x978) (= Q_4 0.0))))
 (let (($x96 (>= S_1 S_0)))
 (let (($x99 (>= S_2 S_1)))
 (let (($x102 (>= S_3 S_2)))
 (let (($x105 (>= S_4 S_3)))
 (let (($x107 (>= A_1 A_0)))
 (let (($x108 (>= A_2 A_1)))
 (let (($x109 (>= A_3 A_2)))
 (let (($x110 (>= A_4 A_3)))
 (and $x110 $x109 $x108 $x107 $x105 $x102 $x99 $x96 $x297 (or (not (<= 0.0 (+ L_0 ?x455))) $x880) (or (= (+ L_4 ?x429) 0.0) (not $x54365)) (or $x307 (<= (+ ?x347 A_4 ?x340 ?x1139 ?x1086 ?x381 ?x1135 ?x1082) 0.0)) (or $x880 (<= (+ ?x363 S_1 L_1) (- 5.0))) (or $x880 (<= (+ A_2 ?x363 ?x381 S_1 L_1 ?x442) 0.0)) (or $x307 (<= (+ ?x359 S_2 L_2) (- 5.0))) (or $x307 (<= (+ ?x347 A_4 ?x340 ?x1108 ?x1086 ?x1135 ?x1043) (- 5.0))) $x131306 (or $x307 (<= (+ ?x347 A_4 ?x340 ?x468 ?x1158 ?x403 ?x1159 ?x1160) 0.0)) (or $x307 (<= (+ ?x347 A_4 ?x340 ?x1169 ?x1170 ?x938 ?x1171 ?x1172) 0.0)) (or $x307 (<= (+ A_4 ?x340 ?x1108 ?x1086 ?x1135 ?x1043) 0.0)) $x70694 $x131419 (or $x307 (= (+ ?x355 ?x1126 ?x363 L_1 ?x1074 L_3) 0.0) (not $x50743)) (or $x876 $x880 $x50743) $x133777 $x135190 $x63648 (or $x307 $x917) $x135299 $x133139 (or $x880 (<= (+ ?x1126 ?x1100 ?x381 S_0 ?x1120 ?x1074) 0.0)) (or $x880 (<= (+ A_2 ?x1100 S_0 ?x1120 ?x442) (- 5.0))) (or $x307 (<= (+ ?x1139 ?x1086 ?x870 S_2 L_0 ?x1135 ?x1082) 0.0)) (or $x307 (<= (+ ?x1139 ?x1086 S_1 ?x938 ?x1135 ?x1082) 0.0)) (or $x307 (<= (+ ?x1108 ?x1102 S_2 ?x938 ?x1062 ?x1043) 0.0)) (or $x307 (<= (+ ?x359 A_1 ?x455 L_2) (- 5.0))) (or $x876 $x54144) (or (>= Q_4 5.0) $x54365) (or $x859 $x3426 $x54044) (or $x880 (<= (+ Q_4 ?x363 S_1 L_1) 0.0)) (or (<= (+ ?x347 A_1 (* (- 1.0) S_2) ?x455) 0.0) $x54365) (or (not $x307) $x878) (or $x878 (<= (+ Q_4 ?x359 S_2 L_2) 0.0)) (or (<= (+ ?x347 A_2 ?x381 ?x442) 0.0) $x54365) $x135560 (or $x878 (= (+ ?x351 L_4 ?x3454 ?x359 L_2 ?x2829) 0.0) $x54044 $x54365) $x65328 (or $x54044 (not $x54365) (<= 0.0 (+ ?x351 ?x3454 ?x359 L_2 ?x429))) (or $x54044 (<= (+ ?x347 A_4 ?x340 ?x3433 A_2 ?x442 ?x3451) (- 5.0))) $x64123 (or (<= (+ ?x347 A_4 ?x340 ?x4861 ?x1163 ?x403 ?x1166 ?x4638) 0.0) $x54044) (or $x54044 (<= (+ ?x355 A_2 ?x442 L_3) (- 5.0))) (or $x4588 $x54044) (or $x853 (<= (+ ?x347 A_4 ?x340 (* (- 2.0) S_4) S_2) 0.0)) (or $x978 (<= (+ Q_4 ?x351 L_4 S_3) (- 5.0))) $x130567 (or $x865 (<= (+ ?x4155 ?x4157 ?x4158 (* (- 1.0) S_2) ?x4137) 0.0)) (or $x880 $x978 $x3424) (or $x853 $x7650 (<= (+ ?x8909 ?x7628 ?x8974 ?x370 ?x7639) 0.0)) (or $x54044 (<= (+ ?x355 S_3 L_3) (- 5.0))) (or (<= (+ ?x347 A_3 ?x370 ?x429) 0.0) $x54365) (or $x54365 (<= (+ ?x351 L_4 A_3 ?x429) (- 5.0))) (or (<= (+ Q_4 A_4 ?x340 ?x3433 S_2 ?x3451) 0.0) $x54044) (or $x978 $x55797 (<= (+ ?x8900 ?x8268 ?x8883 ?x11244) (- 5.0))) (or (<= (+ ?x347 ?x351 L_4 ?x3454 ?x381 ?x2829) 0.0) $x54365) (or (<= (+ ?x347 ?x4680 ?x4662 ?x4633 ?x870 L_0 ?x4560) 0.0) $x54365) $x130047 (or (<= (+ Q_4 ?x355 S_3 L_3) 0.0) $x54044) $x60551 (or $x878 (<= (+ ?x351 L_4 ?x3454 ?x359 ?x442) 0.0) $x54144 $x54365) $x62484 (or $x54044 (<= ?x11259 (- 5.0))) (or (<= (+ ?x347 A_4 ?x340 ?x3433 ?x1126 ?x381 ?x1074 ?x3451) 0.0) $x54044) (or $x878 (<= (+ ?x3446 ?x351 L_4 ?x359 ?x3437 L_2) 0.0) $x54365) (or $x978 (<= (+ ?x3707 ?x4680 ?x4662 (* 4.0 S_3) ?x403) 0.0)) $x135081 (or (<= (+ ?x347 A_4 ?x340 ?x3457 ?x4471 ?x938 ?x4652 ?x3459) 0.0) $x54044) $x61287 (or $x859 (<= (+ ?x8969 ?x8966 ?x8965 ?x381 ?x8980) 0.0)) $x133121 (or $x51539 (<= (+ ?x3415 ?x3406 ?x3429 ?x3409 A_1 ?x455 ?x3443) (- 10.0)) $x54044) (or $x3412 $x51539 $x54044) $x135225 $x135023 (or $x859 (<= (+ ?x347 A_4 L_3 ?x355 ?x340 ?x381 S_1) 0.0)) (or $x54365 (<= (+ ?x351 L_4 A_2 ?x442) (- 10.0))) (or $x878 $x978 (<= (+ ?x3446 ?x351 L_4 ?x359 ?x3437 L_2) 0.0)) (or $x3412 $x7650 $x54044) (or $x978 (<= (+ Q_4 ?x351 ?x359 L_2 L_4 ?x3437) 0.0)) $x132762 (or $x978 $x55408 (<= (+ ?x8983 ?x8984 ?x8985 ?x7639) (- 5.0)) $x55797) $x68772 (or (<= (+ Q_4 ?x3406 ?x3429 ?x3409 S_1 ?x3443) 0.0) $x54044 $x55898) (or $x11345 $x54044 $x55892 $x55898) $x132650 $x130893 (or $x54044 $x54303 $x55898) $x130106 (or $x51539 $x54044 (not $x54365) (<= 0.0 (+ ?x3442 ?x3436 ?x363 L_1 ?x429))) $x130541 (or $x853 $x7650 (<= (+ ?x4256 ?x4254 ?x4255 ?x370 ?x9923) 0.0) $x55121) $x56125 $x130750 (or (<= (+ ?x347 ?x8064 ?x8081 ?x11466 ?x938 ?x9412) 0.0) $x54365) $x133045 (or $x978 (<= (+ ?x3446 ?x3442 ?x3423 ?x3545 (* (- 1.0) S_2)) 0.0)) $x130673 (or (<= (+ ?x355 A_2 ?x870 S_1 L_0 ?x442 L_3) 0.0) $x54044) (or $x54044 $x55570 (<= ?x9005 (- 5.0))) $x131112 (or $x878 (<= (+ A_4 L_3 ?x355 ?x340 ?x359 S_1 L_2) 0.0)) (or $x14292 $x54044 $x54303) $x135584 (or $x878 (<= (+ ?x8969 ?x8966 ?x8965 ?x359 ?x8980 L_2) (- 5.0))) $x130940 (or $x978 $x3461 $x51539 $x54044) $x130612 (or $x880 (<= (+ A_4 L_3 ?x355 ?x340 ?x363 S_0 L_1) 0.0)) (or $x878 (<= (+ ?x3446 A_4 ?x340 ?x1108 ?x3448 ?x1043) 0.0)) $x130489 (or $x54044 (<= (+ ?x355 A_1 ?x455 L_3) (- 10.0))) $x130765 $x132911 $x130867 $x133067 $x132278 $x132049 (or (<= (+ ?x347 ?x3442 ?x3423 ?x3436 (* (- 1.0) S_2) ?x3427) 0.0) $x54365) $x54496 (or $x880 $x978 $x3410) (or $x880 $x978 $x19997) (or $x19902 $x54044 $x54303) (or $x14748 $x54044 $x54303) $x135167 (or $x878 $x978 (<= (+ Q_4 ?x351 L_4 ?x359 ?x3437 L_2) (- 5.0))) $x66131 $x135570 (or $x878 (<= (+ Q_4 A_4 ?x340 ?x1139 S_0 ?x1082) 0.0) $x54828) $x131398 $x135479 (or $x54044 $x54303 $x55570) $x65612 $x134139 $x133647 (or (<= (+ ?x347 ?x4680 ?x4662 ?x4633 ?x403 ?x4560) 0.0) $x54365) $x131064 (or $x859 $x3426 (<= (+ ?x3415 ?x3406 ?x3451 ?x3433 ?x3429 ?x381 S_0) 0.0)) (or $x859 $x3796 $x54365) (or $x853 $x3805 $x7650 $x54365) $x131623 (or $x880 (<= ?x25404 (- 5.0))) $x131525 (or $x880 $x19289) $x135325 (or $x865 (<= (+ ?x359 S_3 L_2 (* (- 1.0) S_2) S_0) 0.0)) (or $x978 (<= (+ L_1 ?x3446 ?x3442 ?x363 ?x3423 ?x3545) 0.0)) (or $x54365 (<= (+ ?x351 L_4 A_1 ?x455) (- 15.0)) $x55797) $x133565 (or $x880 $x3783 $x20707 $x54365) (or $x880 $x3758 $x54365) (or $x880 $x978 $x3783 $x20707) (or $x880 (<= (+ ?x3442 ?x3423 ?x3436 ?x363 L_1 ?x1076) 0.0) $x54144 $x54365) $x61194 $x64618 $x133824 (or $x880 $x978 (<= 0.0 ?x11259) $x56960) (or $x880 $x978 $x56960 $x58709) $x133826 (or $x978 $x3424 $x6069) $x131275 (or $x880 $x978 $x3758) (or $x880 $x978 (<= (+ ?x3446 ?x3442 ?x3423 ?x363 ?x3545 L_1) (- 5.0))) (or $x880 (<= ?x4189 (- 5.0))) (or $x878 (<= (+ A_3 ?x359 ?x370 S_2) 0.0) $x54144) (or $x880 (<= (+ A_3 ?x363 ?x370 S_1 L_1 ?x442) 0.0) $x54144) (or $x853 $x880 $x30052) (or $x878 (<= (+ ?x3454 ?x1139 ?x370 S_1 ?x1082 ?x2829) 0.0)) $x134026 (or $x878 $x19000 $x34447 $x54144) (or $x878 $x12893 $x19289) (or $x853 $x880 (<= (+ A_2 ?x363 ?x370 S_2 L_1 ?x442) 0.0)) (or (<= (+ L_3 ?x355 A_2 ?x363 S_2 L_1 ?x442) 0.0) $x54044) (or (<= (+ ?x4861 ?x1163 S_3 ?x938 ?x1166 ?x4638) 0.0) $x54044) (or $x878 (<= (+ ?x1108 ?x1102 S_3 ?x403 ?x1062 ?x1043) 0.0)) (or (<= (+ ?x3433 ?x1126 ?x363 S_3 L_1 ?x1074 ?x3451) 0.0) $x54044) $x134878 (or $x878 (<= (+ ?x468 ?x1158 S_3 ?x938 ?x1159 ?x1160) 0.0)) (or $x878 (<= (+ A_3 ?x1139 S_1 ?x1082 ?x429) (- 5.0))) $x38138 (or $x865 (<= (+ (* (- 1.0) S_2) S_0) (- 5.0))) $x66912 (or $x865 $x878 $x28883) (or $x878 (<= (+ ?x1139 A_1 S_3 ?x455 ?x1082) (- 5.0))) $x133390 $x67353 (or $x880 (<= (+ ?x3454 ?x1100 ?x3574 ?x6187 ?x1120 ?x2829) 0.0)) (or $x880 (<= (+ ?x17172 ?x17201 S_0 ?x21999 ?x17174) (- 5.0))) (or $x859 $x41899 $x54044) (or $x41923 $x54044) $x132518 $x130945 $x134056 (or $x880 $x41936 $x54044) (or $x880 (<= (+ A_3 ?x363 ?x370 S_1 L_1 ?x429) 0.0)) $x131742 (or $x853 (<= (+ ?x370 S_2) (- 5.0))) (or (<= (+ ?x3433 ?x1126 ?x870 S_2 L_0 ?x1074 ?x3451) 0.0) $x54044) (or (<= (+ ?x3409 ?x1060 ?x870 S_3 L_0 ?x1076 ?x3443) 0.0) $x54044) (or $x878 $x12893 $x35777) $x131819 $x133540 (or $x878 $x2089) (or $x859 $x880 (<= (+ A_3 ?x363 ?x3574 ?x3448 L_1 ?x429) 0.0)) (or $x859 (<= (+ ?x381 S_1) (- 5.0))) $x44663 $x43505 $x134052 $x132435 (or $x878 (<= (+ ?x359 S_1 L_2) (- 10.0))) (or $x880 $x39814) (or $x14748 $x41899 $x54044) (or $x880 (<= (+ ?x363 S_0 L_1) (- 10.0))) (or $x41899 $x54044 $x60032) (or $x14292 $x41899 $x54044) (or $x25928 $x41899 $x54044) $x133765 (or $x853 $x880 $x3252) (or $x880 $x60430) (or $x853 $x880 $x41936) (or $x880 $x62164) (or $x853 $x30843 (<= (+ (* (- (/ 1.0 2.0)) S_4) (* (/ 1.0 2.0) S_1)) (- 5.0))) (or $x853 $x34199) (or $x859 $x37670 (<= (+ (* (- (/ 1.0 2.0)) S_3) (* (/ 1.0 2.0) S_0)) (- 5.0))) (or $x878 $x62384) $x67337 (or $x878 $x62579) (or $x878 $x2956) $x131993 $x132261 $x131938 (or (<= (+ ?x3433 ?x1126 S_1 ?x938 ?x1074 ?x3451) 0.0) $x54044) $x134978 (or (<= (+ ?x3433 ?x1126 S_2 ?x403 ?x1074 ?x3451) 0.0) $x54044) $x133399 (or $x14748 $x36875 $x54044) $x64559 $x52686 $x52653 (or $x3461 $x14292 $x54044) (or $x3461 $x14748 $x54044) (or $x3461 $x25928 $x54044) (or $x54044 $x61450) (or (<= (+ ?x3409 ?x1060 S_2 ?x938 ?x1076 ?x3443) 0.0) $x54044) (or $x859 $x3461 $x54044) (or $x14292 (<= (+ ?x3409 ?x1102 ?x7710 ?x3437 ?x5224 ?x1062 ?x3443) 0.0) $x54044) $x134872 $x53117 (or $x859 $x38525 $x54044) (or $x30332 $x38525 $x54044) (or $x30332 $x36875 $x54044) (or $x14292 $x36875 $x54044) (or $x25928 $x38525 $x54044) (or $x853 (<= (+ (* (- 3.0) S_4) (* 4.0 S_2) ?x938) 0.0)) $x130213 (or $x3461 $x30332 $x54044) (or $x853 (<= (+ (* (- 2.0) S_4) ?x3791 ?x403) 0.0)) (or $x54044 (<= (+ ?x355 ?x3448 ?x938 L_3) (- 5.0)) $x63172) (or $x38525 $x54044 $x60032) (or $x14292 $x38525 $x54044) (or $x3461 $x54044 $x60032) (or (<= (+ ?x3409 ?x1060 S_3 ?x403 ?x1076 ?x3443) 0.0) $x54044) (or $x36875 $x54044 $x60032) (or $x25928 $x36875 $x54044) $x63797 $x34 (<= (+ ?x870 S_0 L_0) 0.0) (<= (+ Q_4 ?x351 L_4 S_4) 0.0) (<= (+ ?x355 S_3 L_3) 0.0) (<= (+ ?x363 S_1 L_1) 0.0) (<= (+ ?x359 S_2 L_2) 0.0)))))))))))))))))))))))))))))))))))))))))))))))))))))))))))))))))))))))))))))))))))))))))))))))))))))))))))))))))))))))))))))))))))))))))))))))))))))))))))))))))))))))))))))))))))))))))))))))))))))))))))))))))))))))))))))))))))))))))))))))))))))))))))))))))))))))))))))))))))))))))))))))))))))))))))))))))))))))))))))
(check-sat)
